LengthSchedulingHorizon=8168;
nAttributes=2;
SetupCosts=[[0, 0], [25, 8], [3, 13]];
SetupTimes=[[0, 0], [21, 19], [8, 9]];
nMachines=5;
MinCap=[0, 0, 0, 0, 0];
MaxCap=[20, 20, 20, 20, 20];

initState=[1, 2, 2, 1, 2];
nShifts=5;
ShiftStartTimes = [[0, 0, 1135, 4843, 5686], [0, 0, 914, 5716, 7901], [0, 0, 4789, 5875, 7480], [0, 0, 1120, 3979, 4097], [5263, 5745, 6416, 6543, 7459]];
ShiftEndTimes = [[0, 0, 3742, 5374, 7253], [0, 0, 3752, 7240, 8069], [0, 0, 5668, 7043, 8000], [0, 0, 2568, 4044, 7632], [5493, 6299, 6501, 7404, 7842]];
nJobs=25;
EligibleMachines = [{3, 5}, {1}, {1, 4}, {5}, {1}, {4}, {1, 2}, {3}, {2}, {3, 5}, {5}, {3, 4, 5}, {4, 5}, {1, 2}, {2, 4}, {2}, {3, 5}, {2, 3}, {5}, {5}, {1, 3}, {3, 4}, {4, 5}, {4, 5}, {2, 3}];
EarliestStart=[652, 664, 578, 48, 309, 499, 160, 380, 187, 141, 631, 12, 348, 331, 377, 292, 38, 574, 360, 424, 574, 585, 427, 311, 519];
LatestEnd=[749, 721, 696, 200, 349, 594, 317, 477, 283, 279, 742, 114, 389, 358, 510, 327, 175, 709, 463, 425, 612, 593, 494, 337, 654];
MinTime=[64, 30, 99, 100, 34, 51, 100, 56, 52, 89, 56, 55, 25, 15, 91, 20, 99, 72, 77, 1, 21, 5, 47, 24, 68];
MaxTime=[100, 100, 100, 100, 100, 100, 100, 100, 100, 100, 100, 100, 100, 100, 100, 100, 100, 100, 100, 100, 100, 100, 100, 100, 100];
JobSize=[3, 20, 19, 16, 3, 18, 8, 4, 19, 7, 17, 18, 8, 20, 10, 12, 14, 12, 15, 20, 16, 2, 10, 15, 19];
Attribute=[2, 1, 1, 1, 1, 1, 1, 1, 1, 1, 2, 1, 1, 2, 2, 2, 1, 2, 2, 2, 1, 1, 1, 1, 1];

upper_bound_integer_objective=15159375;
mult_factor_total_runtime=420;
mult_factor_finished_toolate=577500;
mult_factor_total_setuptimes=0;
mult_factor_total_setupcosts=231;
running_time_bound=1351;
min_duration=1;
max_duration=100;
max_setup_time=21;
max_setup_cost=25;
